(set-logic QF_NRA)
(set-info :source | kissing problem: pack 8 spheres in 3 dimensions |)
(declare-fun x_0_0 () Real)
(declare-fun x_0_1 () Real)
(declare-fun x_0_2 () Real)
(declare-fun x_1_0 () Real)
(declare-fun x_1_1 () Real)
(declare-fun x_1_2 () Real)
(declare-fun x_2_0 () Real)
(declare-fun x_2_1 () Real)
(declare-fun x_2_2 () Real)
(declare-fun x_3_0 () Real)
(declare-fun x_3_1 () Real)
(declare-fun x_3_2 () Real)
(declare-fun x_4_0 () Real)
(declare-fun x_4_1 () Real)
(declare-fun x_4_2 () Real)
(declare-fun x_5_0 () Real)
(declare-fun x_5_1 () Real)
(declare-fun x_5_2 () Real)
(declare-fun x_6_0 () Real)
(declare-fun x_6_1 () Real)
(declare-fun x_6_2 () Real)
(declare-fun x_7_0 () Real)
(declare-fun x_7_1 () Real)
(declare-fun x_7_2 () Real)
(assert (= (+ (* x_0_0 x_0_0) (+ (* x_0_1 x_0_1) (* x_0_2 x_0_2))) 1.))
(assert (= (+ (* x_1_0 x_1_0) (+ (* x_1_1 x_1_1) (* x_1_2 x_1_2))) 1.))
(assert (= (+ (* x_2_0 x_2_0) (+ (* x_2_1 x_2_1) (* x_2_2 x_2_2))) 1.))
(assert (= (+ (* x_3_0 x_3_0) (+ (* x_3_1 x_3_1) (* x_3_2 x_3_2))) 1.))
(assert (= (+ (* x_4_0 x_4_0) (+ (* x_4_1 x_4_1) (* x_4_2 x_4_2))) 1.))
(assert (= (+ (* x_5_0 x_5_0) (+ (* x_5_1 x_5_1) (* x_5_2 x_5_2))) 1.))
(assert (= (+ (* x_6_0 x_6_0) (+ (* x_6_1 x_6_1) (* x_6_2 x_6_2))) 1.))
(assert (= (+ (* x_7_0 x_7_0) (+ (* x_7_1 x_7_1) (* x_7_2 x_7_2))) 1.))
(assert (>= (+ (* (- x_0_0 x_1_0) (- x_0_0 x_1_0)) (+ (* (- x_0_1 x_1_1) (- x_0_1 x_1_1)) (* (- x_0_2 x_1_2) (- x_0_2 x_1_2)))) 1.))
(assert (>= (+ (* (- x_0_0 x_2_0) (- x_0_0 x_2_0)) (+ (* (- x_0_1 x_2_1) (- x_0_1 x_2_1)) (* (- x_0_2 x_2_2) (- x_0_2 x_2_2)))) 1.))
(assert (>= (+ (* (- x_0_0 x_3_0) (- x_0_0 x_3_0)) (+ (* (- x_0_1 x_3_1) (- x_0_1 x_3_1)) (* (- x_0_2 x_3_2) (- x_0_2 x_3_2)))) 1.))
(assert (>= (+ (* (- x_0_0 x_4_0) (- x_0_0 x_4_0)) (+ (* (- x_0_1 x_4_1) (- x_0_1 x_4_1)) (* (- x_0_2 x_4_2) (- x_0_2 x_4_2)))) 1.))
(assert (>= (+ (* (- x_0_0 x_5_0) (- x_0_0 x_5_0)) (+ (* (- x_0_1 x_5_1) (- x_0_1 x_5_1)) (* (- x_0_2 x_5_2) (- x_0_2 x_5_2)))) 1.))
(assert (>= (+ (* (- x_0_0 x_6_0) (- x_0_0 x_6_0)) (+ (* (- x_0_1 x_6_1) (- x_0_1 x_6_1)) (* (- x_0_2 x_6_2) (- x_0_2 x_6_2)))) 1.))
(assert (>= (+ (* (- x_0_0 x_7_0) (- x_0_0 x_7_0)) (+ (* (- x_0_1 x_7_1) (- x_0_1 x_7_1)) (* (- x_0_2 x_7_2) (- x_0_2 x_7_2)))) 1.))
(assert (>= (+ (* (- x_1_0 x_2_0) (- x_1_0 x_2_0)) (+ (* (- x_1_1 x_2_1) (- x_1_1 x_2_1)) (* (- x_1_2 x_2_2) (- x_1_2 x_2_2)))) 1.))
(assert (>= (+ (* (- x_1_0 x_3_0) (- x_1_0 x_3_0)) (+ (* (- x_1_1 x_3_1) (- x_1_1 x_3_1)) (* (- x_1_2 x_3_2) (- x_1_2 x_3_2)))) 1.))
(assert (>= (+ (* (- x_1_0 x_4_0) (- x_1_0 x_4_0)) (+ (* (- x_1_1 x_4_1) (- x_1_1 x_4_1)) (* (- x_1_2 x_4_2) (- x_1_2 x_4_2)))) 1.))
(assert (>= (+ (* (- x_1_0 x_5_0) (- x_1_0 x_5_0)) (+ (* (- x_1_1 x_5_1) (- x_1_1 x_5_1)) (* (- x_1_2 x_5_2) (- x_1_2 x_5_2)))) 1.))
(assert (>= (+ (* (- x_1_0 x_6_0) (- x_1_0 x_6_0)) (+ (* (- x_1_1 x_6_1) (- x_1_1 x_6_1)) (* (- x_1_2 x_6_2) (- x_1_2 x_6_2)))) 1.))
(assert (>= (+ (* (- x_1_0 x_7_0) (- x_1_0 x_7_0)) (+ (* (- x_1_1 x_7_1) (- x_1_1 x_7_1)) (* (- x_1_2 x_7_2) (- x_1_2 x_7_2)))) 1.))
(assert (>= (+ (* (- x_2_0 x_3_0) (- x_2_0 x_3_0)) (+ (* (- x_2_1 x_3_1) (- x_2_1 x_3_1)) (* (- x_2_2 x_3_2) (- x_2_2 x_3_2)))) 1.))
(assert (>= (+ (* (- x_2_0 x_4_0) (- x_2_0 x_4_0)) (+ (* (- x_2_1 x_4_1) (- x_2_1 x_4_1)) (* (- x_2_2 x_4_2) (- x_2_2 x_4_2)))) 1.))
(assert (>= (+ (* (- x_2_0 x_5_0) (- x_2_0 x_5_0)) (+ (* (- x_2_1 x_5_1) (- x_2_1 x_5_1)) (* (- x_2_2 x_5_2) (- x_2_2 x_5_2)))) 1.))
(assert (>= (+ (* (- x_2_0 x_6_0) (- x_2_0 x_6_0)) (+ (* (- x_2_1 x_6_1) (- x_2_1 x_6_1)) (* (- x_2_2 x_6_2) (- x_2_2 x_6_2)))) 1.))
(assert (>= (+ (* (- x_2_0 x_7_0) (- x_2_0 x_7_0)) (+ (* (- x_2_1 x_7_1) (- x_2_1 x_7_1)) (* (- x_2_2 x_7_2) (- x_2_2 x_7_2)))) 1.))
(assert (>= (+ (* (- x_3_0 x_4_0) (- x_3_0 x_4_0)) (+ (* (- x_3_1 x_4_1) (- x_3_1 x_4_1)) (* (- x_3_2 x_4_2) (- x_3_2 x_4_2)))) 1.))
(assert (>= (+ (* (- x_3_0 x_5_0) (- x_3_0 x_5_0)) (+ (* (- x_3_1 x_5_1) (- x_3_1 x_5_1)) (* (- x_3_2 x_5_2) (- x_3_2 x_5_2)))) 1.))
(assert (>= (+ (* (- x_3_0 x_6_0) (- x_3_0 x_6_0)) (+ (* (- x_3_1 x_6_1) (- x_3_1 x_6_1)) (* (- x_3_2 x_6_2) (- x_3_2 x_6_2)))) 1.))
(assert (>= (+ (* (- x_3_0 x_7_0) (- x_3_0 x_7_0)) (+ (* (- x_3_1 x_7_1) (- x_3_1 x_7_1)) (* (- x_3_2 x_7_2) (- x_3_2 x_7_2)))) 1.))
(assert (>= (+ (* (- x_4_0 x_5_0) (- x_4_0 x_5_0)) (+ (* (- x_4_1 x_5_1) (- x_4_1 x_5_1)) (* (- x_4_2 x_5_2) (- x_4_2 x_5_2)))) 1.))
(assert (>= (+ (* (- x_4_0 x_6_0) (- x_4_0 x_6_0)) (+ (* (- x_4_1 x_6_1) (- x_4_1 x_6_1)) (* (- x_4_2 x_6_2) (- x_4_2 x_6_2)))) 1.))
(assert (>= (+ (* (- x_4_0 x_7_0) (- x_4_0 x_7_0)) (+ (* (- x_4_1 x_7_1) (- x_4_1 x_7_1)) (* (- x_4_2 x_7_2) (- x_4_2 x_7_2)))) 1.))
(assert (>= (+ (* (- x_5_0 x_6_0) (- x_5_0 x_6_0)) (+ (* (- x_5_1 x_6_1) (- x_5_1 x_6_1)) (* (- x_5_2 x_6_2) (- x_5_2 x_6_2)))) 1.))
(assert (>= (+ (* (- x_5_0 x_7_0) (- x_5_0 x_7_0)) (+ (* (- x_5_1 x_7_1) (- x_5_1 x_7_1)) (* (- x_5_2 x_7_2) (- x_5_2 x_7_2)))) 1.))
(assert (>= (+ (* (- x_6_0 x_7_0) (- x_6_0 x_7_0)) (+ (* (- x_6_1 x_7_1) (- x_6_1 x_7_1)) (* (- x_6_2 x_7_2) (- x_6_2 x_7_2)))) 1.))
(check-sat)
